************************************************************************
* file: instancias_geradas/folfiri_50_pacientes.sm
* - Instance: FOLFIRI protocol for 50 patients
* - nr. of activities:   402 (incl. source/sink)
* - nr. of renewable resources: 4
************************************************************************
jobs (incl. supersource/sink ): 402
horizon:                         10000 
renewable resources:             4

PRECEDENCE RELATIONS:
- jobnr. mode successors...
  1   1   151   1 2 3 4 9 10 11 17 18 19 25 26 27 33 34 35 41 42 43 49 50 51 57 58 59 65 66 67 73 74 75 81 82 83 89 90 91 97 98 99 105 106 107 113 114 115 121 122 123 129 130 131 137 138 139 145 146 147 153 154 155 161 162 163 169 170 171 177 178 179 185 186 187 193 194 195 201 202 203 209 210 211 217 218 219 225 226 227 233 234 235 241 242 243 249 250 251 257 258 259 265 266 267 273 274 275 281 282 283 289 290 291 297 298 299 305 306 307 313 314 315 321 322 323 329 330 331 337 338 339 345 346 347 353 354 355 361 362 363 369 370 371 377 378 379 385 386 387 393 394 395
  2   1   1    4
  3   1   1    5
  4   1   1    5
  5   1   1    6
  6   1   1    7
  7   1   1    8
  8   1   1    402
  9   1   1    12
  10  1   1    12
  11  1   1    13
  12  1   1    13
  13  1   1    14
  14  1   1    15
  15  1   1    16
  16  1   1    402
  17  1   1    20
  18  1   1    20
  19  1   1    21
  20  1   1    21
  21  1   1    22
  22  1   1    23
  23  1   1    24
  24  1   1    402
  25  1   1    28
  26  1   1    28
  27  1   1    29
  28  1   1    29
  29  1   1    30
  30  1   1    31
  31  1   1    32
  32  1   1    402
  33  1   1    36
  34  1   1    36
  35  1   1    37
  36  1   1    37
  37  1   1    38
  38  1   1    39
  39  1   1    40
  40  1   1    402
  41  1   1    44
  42  1   1    44
  43  1   1    45
  44  1   1    45
  45  1   1    46
  46  1   1    47
  47  1   1    48
  48  1   1    402
  49  1   1    52
  50  1   1    52
  51  1   1    53
  52  1   1    53
  53  1   1    54
  54  1   1    55
  55  1   1    56
  56  1   1    402
  57  1   1    60
  58  1   1    60
  59  1   1    61
  60  1   1    61
  61  1   1    62
  62  1   1    63
  63  1   1    64
  64  1   1    402
  65  1   1    68
  66  1   1    68
  67  1   1    69
  68  1   1    69
  69  1   1    70
  70  1   1    71
  71  1   1    72
  72  1   1    402
  73  1   1    76
  74  1   1    76
  75  1   1    77
  76  1   1    77
  77  1   1    78
  78  1   1    79
  79  1   1    80
  80  1   1    402
  81  1   1    84
  82  1   1    84
  83  1   1    85
  84  1   1    85
  85  1   1    86
  86  1   1    87
  87  1   1    88
  88  1   1    402
  89  1   1    92
  90  1   1    92
  91  1   1    93
  92  1   1    93
  93  1   1    94
  94  1   1    95
  95  1   1    96
  96  1   1    402
  97  1   1    100
  98  1   1    100
  99  1   1    101
  100 1   1    101
  101 1   1    102
  102 1   1    103
  103 1   1    104
  104 1   1    402
  105 1   1    108
  106 1   1    108
  107 1   1    109
  108 1   1    109
  109 1   1    110
  110 1   1    111
  111 1   1    112
  112 1   1    402
  113 1   1    116
  114 1   1    116
  115 1   1    117
  116 1   1    117
  117 1   1    118
  118 1   1    119
  119 1   1    120
  120 1   1    402
  121 1   1    124
  122 1   1    124
  123 1   1    125
  124 1   1    125
  125 1   1    126
  126 1   1    127
  127 1   1    128
  128 1   1    402
  129 1   1    132
  130 1   1    132
  131 1   1    133
  132 1   1    133
  133 1   1    134
  134 1   1    135
  135 1   1    136
  136 1   1    402
  137 1   1    140
  138 1   1    140
  139 1   1    141
  140 1   1    141
  141 1   1    142
  142 1   1    143
  143 1   1    144
  144 1   1    402
  145 1   1    148
  146 1   1    148
  147 1   1    149
  148 1   1    149
  149 1   1    150
  150 1   1    151
  151 1   1    152
  152 1   1    402
  153 1   1    156
  154 1   1    156
  155 1   1    157
  156 1   1    157
  157 1   1    158
  158 1   1    159
  159 1   1    160
  160 1   1    402
  161 1   1    164
  162 1   1    164
  163 1   1    165
  164 1   1    165
  165 1   1    166
  166 1   1    167
  167 1   1    168
  168 1   1    402
  169 1   1    172
  170 1   1    172
  171 1   1    173
  172 1   1    173
  173 1   1    174
  174 1   1    175
  175 1   1    176
  176 1   1    402
  177 1   1    180
  178 1   1    180
  179 1   1    181
  180 1   1    181
  181 1   1    182
  182 1   1    183
  183 1   1    184
  184 1   1    402
  185 1   1    188
  186 1   1    188
  187 1   1    189
  188 1   1    189
  189 1   1    190
  190 1   1    191
  191 1   1    192
  192 1   1    402
  193 1   1    196
  194 1   1    196
  195 1   1    197
  196 1   1    197
  197 1   1    198
  198 1   1    199
  199 1   1    200
  200 1   1    402
  201 1   1    204
  202 1   1    204
  203 1   1    205
  204 1   1    205
  205 1   1    206
  206 1   1    207
  207 1   1    208
  208 1   1    402
  209 1   1    212
  210 1   1    212
  211 1   1    213
  212 1   1    213
  213 1   1    214
  214 1   1    215
  215 1   1    216
  216 1   1    402
  217 1   1    220
  218 1   1    220
  219 1   1    221
  220 1   1    221
  221 1   1    222
  222 1   1    223
  223 1   1    224
  224 1   1    402
  225 1   1    228
  226 1   1    228
  227 1   1    229
  228 1   1    229
  229 1   1    230
  230 1   1    231
  231 1   1    232
  232 1   1    402
  233 1   1    236
  234 1   1    236
  235 1   1    237
  236 1   1    237
  237 1   1    238
  238 1   1    239
  239 1   1    240
  240 1   1    402
  241 1   1    244
  242 1   1    244
  243 1   1    245
  244 1   1    245
  245 1   1    246
  246 1   1    247
  247 1   1    248
  248 1   1    402
  249 1   1    252
  250 1   1    252
  251 1   1    253
  252 1   1    253
  253 1   1    254
  254 1   1    255
  255 1   1    256
  256 1   1    402
  257 1   1    260
  258 1   1    260
  259 1   1    261
  260 1   1    261
  261 1   1    262
  262 1   1    263
  263 1   1    264
  264 1   1    402
  265 1   1    268
  266 1   1    268
  267 1   1    269
  268 1   1    269
  269 1   1    270
  270 1   1    271
  271 1   1    272
  272 1   1    402
  273 1   1    276
  274 1   1    276
  275 1   1    277
  276 1   1    277
  277 1   1    278
  278 1   1    279
  279 1   1    280
  280 1   1    402
  281 1   1    284
  282 1   1    284
  283 1   1    285
  284 1   1    285
  285 1   1    286
  286 1   1    287
  287 1   1    288
  288 1   1    402
  289 1   1    292
  290 1   1    292
  291 1   1    293
  292 1   1    293
  293 1   1    294
  294 1   1    295
  295 1   1    296
  296 1   1    402
  297 1   1    300
  298 1   1    300
  299 1   1    301
  300 1   1    301
  301 1   1    302
  302 1   1    303
  303 1   1    304
  304 1   1    402
  305 1   1    308
  306 1   1    308
  307 1   1    309
  308 1   1    309
  309 1   1    310
  310 1   1    311
  311 1   1    312
  312 1   1    402
  313 1   1    316
  314 1   1    316
  315 1   1    317
  316 1   1    317
  317 1   1    318
  318 1   1    319
  319 1   1    320
  320 1   1    402
  321 1   1    324
  322 1   1    324
  323 1   1    325
  324 1   1    325
  325 1   1    326
  326 1   1    327
  327 1   1    328
  328 1   1    402
  329 1   1    332
  330 1   1    332
  331 1   1    333
  332 1   1    333
  333 1   1    334
  334 1   1    335
  335 1   1    336
  336 1   1    402
  337 1   1    340
  338 1   1    340
  339 1   1    341
  340 1   1    341
  341 1   1    342
  342 1   1    343
  343 1   1    344
  344 1   1    402
  345 1   1    348
  346 1   1    348
  347 1   1    349
  348 1   1    349
  349 1   1    350
  350 1   1    351
  351 1   1    352
  352 1   1    402
  353 1   1    356
  354 1   1    356
  355 1   1    357
  356 1   1    357
  357 1   1    358
  358 1   1    359
  359 1   1    360
  360 1   1    402
  361 1   1    364
  362 1   1    364
  363 1   1    365
  364 1   1    365
  365 1   1    366
  366 1   1    367
  367 1   1    368
  368 1   1    402
  369 1   1    372
  370 1   1    372
  371 1   1    373
  372 1   1    373
  373 1   1    374
  374 1   1    375
  375 1   1    376
  376 1   1    402
  377 1   1    380
  378 1   1    380
  379 1   1    381
  380 1   1    381
  381 1   1    382
  382 1   1    383
  383 1   1    384
  384 1   1    402
  385 1   1    388
  386 1   1    388
  387 1   1    389
  388 1   1    389
  389 1   1    390
  390 1   1    391
  391 1   1    392
  392 1   1    402
  393 1   1    396
  394 1   1    396
  395 1   1    397
  396 1   1    397
  397 1   1    398
  398 1   1    399
  399 1   1    400
  400 1   1    402
  401 1   0    
  402 1   0    

REQUESTS/DURATIONS:
- jobnr. mode duration R1 R2 R3 R4
  1   1   0    0  0  0  0 
  2   1   2    0  0  1  0 
  3   1   4    0  0  0  1 
  4   1   1    1  1  0  0 
  5   1   6    1  1  0  0 
  6   1   8    1  1  0  0 
  7   1   1    1  1  0  0 
  8   1   2    1  1  0  0 
  9   1   2    1  0  0  0 
  10  1   2    0  0  1  0 
  11  1   4    0  0  0  1 
  12  1   1    1  1  0  0 
  13  1   6    1  1  0  0 
  14  1   8    1  1  0  0 
  15  1   1    1  1  0  0 
  16  1   2    1  1  0  0 
  17  1   2    1  0  0  0 
  18  1   2    0  0  1  0 
  19  1   4    0  0  0  1 
  20  1   1    1  1  0  0 
  21  1   6    1  1  0  0 
  22  1   8    1  1  0  0 
  23  1   1    1  1  0  0 
  24  1   2    1  1  0  0 
  25  1   2    1  0  0  0 
  26  1   2    0  0  1  0 
  27  1   4    0  0  0  1 
  28  1   1    1  1  0  0 
  29  1   6    1  1  0  0 
  30  1   8    1  1  0  0 
  31  1   1    1  1  0  0 
  32  1   2    1  1  0  0 
  33  1   2    1  0  0  0 
  34  1   2    0  0  1  0 
  35  1   4    0  0  0  1 
  36  1   1    1  1  0  0 
  37  1   6    1  1  0  0 
  38  1   8    1  1  0  0 
  39  1   1    1  1  0  0 
  40  1   2    1  1  0  0 
  41  1   2    1  0  0  0 
  42  1   2    0  0  1  0 
  43  1   4    0  0  0  1 
  44  1   1    1  1  0  0 
  45  1   6    1  1  0  0 
  46  1   8    1  1  0  0 
  47  1   1    1  1  0  0 
  48  1   2    1  1  0  0 
  49  1   2    1  0  0  0 
  50  1   2    0  0  1  0 
  51  1   4    0  0  0  1 
  52  1   1    1  1  0  0 
  53  1   6    1  1  0  0 
  54  1   8    1  1  0  0 
  55  1   1    1  1  0  0 
  56  1   2    1  1  0  0 
  57  1   2    1  0  0  0 
  58  1   2    0  0  1  0 
  59  1   4    0  0  0  1 
  60  1   1    1  1  0  0 
  61  1   6    1  1  0  0 
  62  1   8    1  1  0  0 
  63  1   1    1  1  0  0 
  64  1   2    1  1  0  0 
  65  1   2    1  0  0  0 
  66  1   2    0  0  1  0 
  67  1   4    0  0  0  1 
  68  1   1    1  1  0  0 
  69  1   6    1  1  0  0 
  70  1   8    1  1  0  0 
  71  1   1    1  1  0  0 
  72  1   2    1  1  0  0 
  73  1   2    1  0  0  0 
  74  1   2    0  0  1  0 
  75  1   4    0  0  0  1 
  76  1   1    1  1  0  0 
  77  1   6    1  1  0  0 
  78  1   8    1  1  0  0 
  79  1   1    1  1  0  0 
  80  1   2    1  1  0  0 
  81  1   2    1  0  0  0 
  82  1   2    0  0  1  0 
  83  1   4    0  0  0  1 
  84  1   1    1  1  0  0 
  85  1   6    1  1  0  0 
  86  1   8    1  1  0  0 
  87  1   1    1  1  0  0 
  88  1   2    1  1  0  0 
  89  1   2    1  0  0  0 
  90  1   2    0  0  1  0 
  91  1   4    0  0  0  1 
  92  1   1    1  1  0  0 
  93  1   6    1  1  0  0 
  94  1   8    1  1  0  0 
  95  1   1    1  1  0  0 
  96  1   2    1  1  0  0 
  97  1   2    1  0  0  0 
  98  1   2    0  0  1  0 
  99  1   4    0  0  0  1 
  100 1   1    1  1  0  0 
  101 1   6    1  1  0  0 
  102 1   8    1  1  0  0 
  103 1   1    1  1  0  0 
  104 1   2    1  1  0  0 
  105 1   2    1  0  0  0 
  106 1   2    0  0  1  0 
  107 1   4    0  0  0  1 
  108 1   1    1  1  0  0 
  109 1   6    1  1  0  0 
  110 1   8    1  1  0  0 
  111 1   1    1  1  0  0 
  112 1   2    1  1  0  0 
  113 1   2    1  0  0  0 
  114 1   2    0  0  1  0 
  115 1   4    0  0  0  1 
  116 1   1    1  1  0  0 
  117 1   6    1  1  0  0 
  118 1   8    1  1  0  0 
  119 1   1    1  1  0  0 
  120 1   2    1  1  0  0 
  121 1   2    1  0  0  0 
  122 1   2    0  0  1  0 
  123 1   4    0  0  0  1 
  124 1   1    1  1  0  0 
  125 1   6    1  1  0  0 
  126 1   8    1  1  0  0 
  127 1   1    1  1  0  0 
  128 1   2    1  1  0  0 
  129 1   2    1  0  0  0 
  130 1   2    0  0  1  0 
  131 1   4    0  0  0  1 
  132 1   1    1  1  0  0 
  133 1   6    1  1  0  0 
  134 1   8    1  1  0  0 
  135 1   1    1  1  0  0 
  136 1   2    1  1  0  0 
  137 1   2    1  0  0  0 
  138 1   2    0  0  1  0 
  139 1   4    0  0  0  1 
  140 1   1    1  1  0  0 
  141 1   6    1  1  0  0 
  142 1   8    1  1  0  0 
  143 1   1    1  1  0  0 
  144 1   2    1  1  0  0 
  145 1   2    1  0  0  0 
  146 1   2    0  0  1  0 
  147 1   4    0  0  0  1 
  148 1   1    1  1  0  0 
  149 1   6    1  1  0  0 
  150 1   8    1  1  0  0 
  151 1   1    1  1  0  0 
  152 1   2    1  1  0  0 
  153 1   2    1  0  0  0 
  154 1   2    0  0  1  0 
  155 1   4    0  0  0  1 
  156 1   1    1  1  0  0 
  157 1   6    1  1  0  0 
  158 1   8    1  1  0  0 
  159 1   1    1  1  0  0 
  160 1   2    1  1  0  0 
  161 1   2    1  0  0  0 
  162 1   2    0  0  1  0 
  163 1   4    0  0  0  1 
  164 1   1    1  1  0  0 
  165 1   6    1  1  0  0 
  166 1   8    1  1  0  0 
  167 1   1    1  1  0  0 
  168 1   2    1  1  0  0 
  169 1   2    1  0  0  0 
  170 1   2    0  0  1  0 
  171 1   4    0  0  0  1 
  172 1   1    1  1  0  0 
  173 1   6    1  1  0  0 
  174 1   8    1  1  0  0 
  175 1   1    1  1  0  0 
  176 1   2    1  1  0  0 
  177 1   2    1  0  0  0 
  178 1   2    0  0  1  0 
  179 1   4    0  0  0  1 
  180 1   1    1  1  0  0 
  181 1   6    1  1  0  0 
  182 1   8    1  1  0  0 
  183 1   1    1  1  0  0 
  184 1   2    1  1  0  0 
  185 1   2    1  0  0  0 
  186 1   2    0  0  1  0 
  187 1   4    0  0  0  1 
  188 1   1    1  1  0  0 
  189 1   6    1  1  0  0 
  190 1   8    1  1  0  0 
  191 1   1    1  1  0  0 
  192 1   2    1  1  0  0 
  193 1   2    1  0  0  0 
  194 1   2    0  0  1  0 
  195 1   4    0  0  0  1 
  196 1   1    1  1  0  0 
  197 1   6    1  1  0  0 
  198 1   8    1  1  0  0 
  199 1   1    1  1  0  0 
  200 1   2    1  1  0  0 
  201 1   2    1  0  0  0 
  202 1   2    0  0  1  0 
  203 1   4    0  0  0  1 
  204 1   1    1  1  0  0 
  205 1   6    1  1  0  0 
  206 1   8    1  1  0  0 
  207 1   1    1  1  0  0 
  208 1   2    1  1  0  0 
  209 1   2    1  0  0  0 
  210 1   2    0  0  1  0 
  211 1   4    0  0  0  1 
  212 1   1    1  1  0  0 
  213 1   6    1  1  0  0 
  214 1   8    1  1  0  0 
  215 1   1    1  1  0  0 
  216 1   2    1  1  0  0 
  217 1   2    1  0  0  0 
  218 1   2    0  0  1  0 
  219 1   4    0  0  0  1 
  220 1   1    1  1  0  0 
  221 1   6    1  1  0  0 
  222 1   8    1  1  0  0 
  223 1   1    1  1  0  0 
  224 1   2    1  1  0  0 
  225 1   2    1  0  0  0 
  226 1   2    0  0  1  0 
  227 1   4    0  0  0  1 
  228 1   1    1  1  0  0 
  229 1   6    1  1  0  0 
  230 1   8    1  1  0  0 
  231 1   1    1  1  0  0 
  232 1   2    1  1  0  0 
  233 1   2    1  0  0  0 
  234 1   2    0  0  1  0 
  235 1   4    0  0  0  1 
  236 1   1    1  1  0  0 
  237 1   6    1  1  0  0 
  238 1   8    1  1  0  0 
  239 1   1    1  1  0  0 
  240 1   2    1  1  0  0 
  241 1   2    1  0  0  0 
  242 1   2    0  0  1  0 
  243 1   4    0  0  0  1 
  244 1   1    1  1  0  0 
  245 1   6    1  1  0  0 
  246 1   8    1  1  0  0 
  247 1   1    1  1  0  0 
  248 1   2    1  1  0  0 
  249 1   2    1  0  0  0 
  250 1   2    0  0  1  0 
  251 1   4    0  0  0  1 
  252 1   1    1  1  0  0 
  253 1   6    1  1  0  0 
  254 1   8    1  1  0  0 
  255 1   1    1  1  0  0 
  256 1   2    1  1  0  0 
  257 1   2    1  0  0  0 
  258 1   2    0  0  1  0 
  259 1   4    0  0  0  1 
  260 1   1    1  1  0  0 
  261 1   6    1  1  0  0 
  262 1   8    1  1  0  0 
  263 1   1    1  1  0  0 
  264 1   2    1  1  0  0 
  265 1   2    1  0  0  0 
  266 1   2    0  0  1  0 
  267 1   4    0  0  0  1 
  268 1   1    1  1  0  0 
  269 1   6    1  1  0  0 
  270 1   8    1  1  0  0 
  271 1   1    1  1  0  0 
  272 1   2    1  1  0  0 
  273 1   2    1  0  0  0 
  274 1   2    0  0  1  0 
  275 1   4    0  0  0  1 
  276 1   1    1  1  0  0 
  277 1   6    1  1  0  0 
  278 1   8    1  1  0  0 
  279 1   1    1  1  0  0 
  280 1   2    1  1  0  0 
  281 1   2    1  0  0  0 
  282 1   2    0  0  1  0 
  283 1   4    0  0  0  1 
  284 1   1    1  1  0  0 
  285 1   6    1  1  0  0 
  286 1   8    1  1  0  0 
  287 1   1    1  1  0  0 
  288 1   2    1  1  0  0 
  289 1   2    1  0  0  0 
  290 1   2    0  0  1  0 
  291 1   4    0  0  0  1 
  292 1   1    1  1  0  0 
  293 1   6    1  1  0  0 
  294 1   8    1  1  0  0 
  295 1   1    1  1  0  0 
  296 1   2    1  1  0  0 
  297 1   2    1  0  0  0 
  298 1   2    0  0  1  0 
  299 1   4    0  0  0  1 
  300 1   1    1  1  0  0 
  301 1   6    1  1  0  0 
  302 1   8    1  1  0  0 
  303 1   1    1  1  0  0 
  304 1   2    1  1  0  0 
  305 1   2    1  0  0  0 
  306 1   2    0  0  1  0 
  307 1   4    0  0  0  1 
  308 1   1    1  1  0  0 
  309 1   6    1  1  0  0 
  310 1   8    1  1  0  0 
  311 1   1    1  1  0  0 
  312 1   2    1  1  0  0 
  313 1   2    1  0  0  0 
  314 1   2    0  0  1  0 
  315 1   4    0  0  0  1 
  316 1   1    1  1  0  0 
  317 1   6    1  1  0  0 
  318 1   8    1  1  0  0 
  319 1   1    1  1  0  0 
  320 1   2    1  1  0  0 
  321 1   2    1  0  0  0 
  322 1   2    0  0  1  0 
  323 1   4    0  0  0  1 
  324 1   1    1  1  0  0 
  325 1   6    1  1  0  0 
  326 1   8    1  1  0  0 
  327 1   1    1  1  0  0 
  328 1   2    1  1  0  0 
  329 1   2    1  0  0  0 
  330 1   2    0  0  1  0 
  331 1   4    0  0  0  1 
  332 1   1    1  1  0  0 
  333 1   6    1  1  0  0 
  334 1   8    1  1  0  0 
  335 1   1    1  1  0  0 
  336 1   2    1  1  0  0 
  337 1   2    1  0  0  0 
  338 1   2    0  0  1  0 
  339 1   4    0  0  0  1 
  340 1   1    1  1  0  0 
  341 1   6    1  1  0  0 
  342 1   8    1  1  0  0 
  343 1   1    1  1  0  0 
  344 1   2    1  1  0  0 
  345 1   2    1  0  0  0 
  346 1   2    0  0  1  0 
  347 1   4    0  0  0  1 
  348 1   1    1  1  0  0 
  349 1   6    1  1  0  0 
  350 1   8    1  1  0  0 
  351 1   1    1  1  0  0 
  352 1   2    1  1  0  0 
  353 1   2    1  0  0  0 
  354 1   2    0  0  1  0 
  355 1   4    0  0  0  1 
  356 1   1    1  1  0  0 
  357 1   6    1  1  0  0 
  358 1   8    1  1  0  0 
  359 1   1    1  1  0  0 
  360 1   2    1  1  0  0 
  361 1   2    1  0  0  0 
  362 1   2    0  0  1  0 
  363 1   4    0  0  0  1 
  364 1   1    1  1  0  0 
  365 1   6    1  1  0  0 
  366 1   8    1  1  0  0 
  367 1   1    1  1  0  0 
  368 1   2    1  1  0  0 
  369 1   2    1  0  0  0 
  370 1   2    0  0  1  0 
  371 1   4    0  0  0  1 
  372 1   1    1  1  0  0 
  373 1   6    1  1  0  0 
  374 1   8    1  1  0  0 
  375 1   1    1  1  0  0 
  376 1   2    1  1  0  0 
  377 1   2    1  0  0  0 
  378 1   2    0  0  1  0 
  379 1   4    0  0  0  1 
  380 1   1    1  1  0  0 
  381 1   6    1  1  0  0 
  382 1   8    1  1  0  0 
  383 1   1    1  1  0  0 
  384 1   2    1  1  0  0 
  385 1   2    1  0  0  0 
  386 1   2    0  0  1  0 
  387 1   4    0  0  0  1 
  388 1   1    1  1  0  0 
  389 1   6    1  1  0  0 
  390 1   8    1  1  0  0 
  391 1   1    1  1  0  0 
  392 1   2    1  1  0  0 
  393 1   2    1  0  0  0 
  394 1   2    0  0  1  0 
  395 1   4    0  0  0  1 
  396 1   1    1  1  0  0 
  397 1   6    1  1  0  0 
  398 1   8    1  1  0  0 
  399 1   1    1  1  0  0 
  400 1   2    1  1  0  0 
  402 1   0    0  0  0  0 

RESOURCEAVAILABILITIES:
R1 R2 R3 R4
10 10 10 10
